CPXPARAM_MIP_Strategy_HeuristicFreq#P37#0#3.500129#0.835314
CPXPARAM_MIP_Strategy_HeuristicFreq#P37#20#3.450678#0.823512
CPXPARAM_MIP_Strategy_HeuristicFreq#P37#40#4.190195#1.000000
CPXPARAM_MIP_Strategy_HeuristicFreq#P37#100#4.189666#0.999874
